c 
c G(n,p) graph
c graph gen seed     : 23484
c number of vertices : 30
c max number of edges: 500
c edge probability   : 0.400000
c data structure     : sparse
c
c           Graph Stats
c number of vertices  : 30
c nonisolated vertices: 30
c number of edges     : 170
c edge density        : 0.390805
c max degree          : 16
c avg degree          : 11.33
c min degree          : 7
p col 30 170
e 1 26
e 1 25
e 1 18
e 1 17
e 1 16
e 1 15
e 1 12
e 1 11
e 1 8
e 1 6
e 1 4
e 2 28
e 2 27
e 2 26
e 2 25
e 2 19
e 2 17
e 2 13
e 2 8
e 2 7
e 2 5
e 2 3
e 3 30
e 3 28
e 3 24
e 3 22
e 3 21
e 3 20
e 3 18
e 3 16
e 3 15
e 3 14
e 3 11
e 3 9
e 3 7
e 3 6
e 3 5
e 4 30
e 4 29
e 4 26
e 4 24
e 4 22
e 4 21
e 4 18
e 4 17
e 4 15
e 4 14
e 4 13
e 4 10
e 4 9
e 4 8
e 5 26
e 5 24
e 5 23
e 5 22
e 5 12
e 5 7
e 6 26
e 6 25
e 6 14
e 6 11
e 6 7
e 7 30
e 7 28
e 7 26
e 7 21
e 7 19
e 7 17
e 7 10
e 7 8
e 8 30
e 8 29
e 8 27
e 8 23
e 8 18
e 8 15
e 9 30
e 9 28
e 9 27
e 9 20
e 9 14
e 9 13
e 9 12
e 10 28
e 10 27
e 10 26
e 10 25
e 10 21
e 10 17
e 10 16
e 10 15
e 10 13
e 10 11
e 11 26
e 11 25
e 11 24
e 11 23
e 11 20
e 11 18
e 11 17
e 11 14
e 12 27
e 12 22
e 12 16
e 12 14
e 13 30
e 13 29
e 13 28
e 13 26
e 13 24
e 13 18
e 13 15
e 14 30
e 14 28
e 14 27
e 14 22
e 14 21
e 14 20
e 15 28
e 15 26
e 15 20
e 15 19
e 15 18
e 15 16
e 16 29
e 16 25
e 16 23
e 16 22
e 17 30
e 17 27
e 17 25
e 17 24
e 18 29
e 18 28
e 18 26
e 18 22
e 19 29
e 19 28
e 19 26
e 19 25
e 19 22
e 19 20
e 20 29
e 20 28
e 20 27
e 20 23
e 20 22
e 20 21
e 21 29
e 21 26
e 21 24
e 21 23
e 22 30
e 22 29
e 22 28
e 22 27
e 22 26
e 22 23
e 23 30
e 23 28
e 23 24
e 24 27
e 24 26
e 25 27
e 26 27
e 27 30
e 27 28
e 28 30
e 28 29
e 29 30
